Version identifier: 20.1.0.0 | 2020-11-10 | 9bedb6d68
CPXPARAM_LPMethod                                2
CPXPARAM_QPMethod                                2
CPXPARAM_Threads                                 4
CPXPARAM_MIP_Strategy_StartAlgorithm             2
CPXPARAM_TimeLimit                               43200
Tried aggregator 1 time.
LP Presolve eliminated 0 rows and 496 columns.
All rows and columns eliminated.
Presolve time = 0,00 sec. (0,06 ticks)
Version identifier: 20.1.0.0 | 2020-11-10 | 9bedb6d68
CPXPARAM_LPMethod                                2
CPXPARAM_QPMethod                                2
CPXPARAM_Threads                                 4
CPXPARAM_MIP_Strategy_StartAlgorithm             2
CPXPARAM_TimeLimit                               43200
Version identifier: 20.1.0.0 | 2020-11-10 | 9bedb6d68
CPXPARAM_LPMethod                                2
CPXPARAM_QPMethod                                2
CPXPARAM_Threads                                 4
CPXPARAM_MIP_Strategy_StartAlgorithm             2
CPXPARAM_TimeLimit                               43200

Iteration log . . .
Iteration:     1   Dual objective     =             1,000000
Iteration:   103   Dual objective     =            27,500000
Iteration:   215   Dual objective     =            42,500000
Iteration:   299   Dual objective     =            46,750000
Version identifier: 20.1.0.0 | 2020-11-10 | 9bedb6d68
CPXPARAM_LPMethod                                2
CPXPARAM_QPMethod                                2
CPXPARAM_Threads                                 4
CPXPARAM_MIP_Strategy_StartAlgorithm             2
CPXPARAM_TimeLimit                               43200
Reinitializing dual norms . . .
Computed 565 new norms.

Iteration log . . .
Iteration:     1   Dual objective     =            47,500000
Perturbation started.
Iteration:    51   Dual objective     =            47,500000
Iteration:   151   Dual objective     =            48,500014
Removing perturbation.
Version identifier: 20.1.0.0 | 2020-11-10 | 9bedb6d68
CPXPARAM_LPMethod                                2
CPXPARAM_QPMethod                                2
CPXPARAM_Threads                                 4
CPXPARAM_MIP_Strategy_StartAlgorithm             2
CPXPARAM_TimeLimit                               43200
Reinitializing dual norms . . .
Computed 2 new norms.

Iteration log . . .
Iteration:     1   Dual objective     =            49,000000
Version identifier: 20.1.0.0 | 2020-11-10 | 9bedb6d68
CPXPARAM_LPMethod                                2
CPXPARAM_QPMethod                                2
CPXPARAM_Threads                                 4
CPXPARAM_MIP_Strategy_StartAlgorithm             2
CPXPARAM_TimeLimit                               43200
Reinitializing dual norms . . .
Computed 2 new norms.

Iteration log . . .
Iteration:     1   Dual objective     =            49,000000
Version identifier: 20.1.0.0 | 2020-11-10 | 9bedb6d68
CPXPARAM_LPMethod                                2
CPXPARAM_QPMethod                                2
CPXPARAM_Threads                                 4
CPXPARAM_MIP_Strategy_StartAlgorithm             2
CPXPARAM_TimeLimit                               43200
Reinitializing dual norms . . .
Computed 1 new norms.

Iteration log . . .
Iteration:     1   Dual objective     =            49,000000
Version identifier: 20.1.0.0 | 2020-11-10 | 9bedb6d68
CPXPARAM_LPMethod                                2
CPXPARAM_QPMethod                                2
CPXPARAM_Threads                                 4
CPXPARAM_MIP_Strategy_StartAlgorithm             2
CPXPARAM_TimeLimit                               43200
Reinitializing dual norms . . .
Computed 1 new norms.

Iteration log . . .
Iteration:     1   Dual objective     =            49,000000
Version identifier: 20.1.0.0 | 2020-11-10 | 9bedb6d68
CPXPARAM_LPMethod                                2
CPXPARAM_QPMethod                                2
CPXPARAM_Threads                                 4
CPXPARAM_MIP_Strategy_StartAlgorithm             2
CPXPARAM_TimeLimit                               43200
Reinitializing dual norms . . .
Computed 1 new norms.

Iteration log . . .
Iteration:     1   Dual objective     =            49,000000
Version identifier: 20.1.0.0 | 2020-11-10 | 9bedb6d68
CPXPARAM_LPMethod                                2
CPXPARAM_QPMethod                                2
CPXPARAM_Threads                                 4
CPXPARAM_MIP_Strategy_StartAlgorithm             2
CPXPARAM_TimeLimit                               43200
Reinitializing dual norms . . .
Computed 3 new norms.

Iteration log . . .
Iteration:     1   Dual objective     =            49,000000
Version identifier: 20.1.0.0 | 2020-11-10 | 9bedb6d68
CPXPARAM_LPMethod                                2
CPXPARAM_QPMethod                                2
CPXPARAM_Threads                                 4
CPXPARAM_MIP_Strategy_StartAlgorithm             2
CPXPARAM_TimeLimit                               43200
Reinitializing dual norms . . .
Computed 2 new norms.

Iteration log . . .
Iteration:     1   Dual objective     =            49,000000
Version identifier: 20.1.0.0 | 2020-11-10 | 9bedb6d68
CPXPARAM_LPMethod                                2
CPXPARAM_QPMethod                                2
CPXPARAM_Threads                                 4
CPXPARAM_MIP_Strategy_StartAlgorithm             2
CPXPARAM_TimeLimit                               43200
Reinitializing dual norms . . .
Computed 2 new norms.

Iteration log . . .
Iteration:     1   Dual objective     =            49,000000
Version identifier: 20.1.0.0 | 2020-11-10 | 9bedb6d68
CPXPARAM_LPMethod                                2
CPXPARAM_QPMethod                                2
CPXPARAM_Threads                                 4
CPXPARAM_MIP_Strategy_StartAlgorithm             2
CPXPARAM_TimeLimit                               43200
Reinitializing dual norms . . .
Computed 19 new norms.

Iteration log . . .
Iteration:     1   Dual objective     =            49,000000
Version identifier: 20.1.0.0 | 2020-11-10 | 9bedb6d68
CPXPARAM_Threads                                 4
CPXPARAM_TimeLimit                               43197.659801006317
1 of 1 MIP starts provided solutions.
MIP start 'm1' defined initial solution with objective 49,0000.
Tried aggregator 1 time.
MIP Presolve eliminated 3 rows and 0 columns.
Reduced MIP has 14897 rows, 496 columns, and 45223 nonzeros.
Reduced MIP has 496 binaries, 0 generals, 0 SOSs, and 0 indicators.
Presolve time = 0,09 sec. (16,66 ticks)
Probing time = 0,07 sec. (0,96 ticks)
Tried aggregator 1 time.
Detecting symmetries...
Reduced MIP has 14897 rows, 496 columns, and 45223 nonzeros.
Reduced MIP has 496 binaries, 0 generals, 0 SOSs, and 0 indicators.
Presolve time = 0,07 sec. (20,66 ticks)
Probing time = 0,06 sec. (1,13 ticks)
MIP emphasis: balance optimality and feasibility.
MIP search method: dynamic search.
Parallel mode: deterministic, using up to 4 threads.
Root relaxation solution time = 0,27 sec. (88,13 ticks)

        Nodes                                         Cuts/
   Node  Left     Objective  IInf  Best Integer    Best Bound    ItCnt     Gap

*     0+    0                           49,0000        0,0000           100,00%
      0     0        cutoff             49,0000                   1093    0,00%

Root node processing (before b&c):
  Real time             =    0,63 sec. (142,07 ticks)
Parallel b&c, 4 threads:
  Real time             =    0,00 sec. (0,00 ticks)
  Sync time (average)   =    0,00 sec.
  Wait time (average)   =    0,00 sec.
                          ------------
Total (root+branch&cut) =    0,63 sec. (142,07 ticks)
